c description: Tseitin formula on , with odd charge
c generator: CNFgen (0.9.0)
c copyright: (C) 2012-2020 Massimo Lauria <massimo.lauria@uniroma1.it>
c url: https://massimolauria.net/cnfgen
c
p cnf 20 102
1 2 3 0
1 -2 -3 0
-1 2 -3 0
-1 -2 3 0
4 5 6 -7 0
4 5 -6 7 0
4 -5 6 7 0
4 -5 -6 -7 0
-4 5 6 7 0
-4 5 -6 -7 0
-4 -5 6 -7 0
-4 -5 -6 7 0
8 9 10 -11 0
8 9 -10 11 0
8 -9 10 11 0
8 -9 -10 -11 0
-8 9 10 11 0
-8 9 -10 -11 0
-8 -9 10 -11 0
-8 -9 -10 11 0
1 8 12 -13 0
1 8 -12 13 0
1 -8 12 13 0
1 -8 -12 -13 0
-1 8 12 13 0
-1 8 -12 -13 0
-1 -8 12 -13 0
-1 -8 -12 13 0
2 4 9 14 15 -16 0
2 4 9 14 -15 16 0
2 4 9 -14 15 16 0
2 4 9 -14 -15 -16 0
2 4 -9 14 15 16 0
2 4 -9 14 -15 -16 0
2 4 -9 -14 15 -16 0
2 4 -9 -14 -15 16 0
2 -4 9 14 15 16 0
2 -4 9 14 -15 -16 0
2 -4 9 -14 15 -16 0
2 -4 9 -14 -15 16 0
2 -4 -9 14 15 -16 0
2 -4 -9 14 -15 16 0
2 -4 -9 -14 15 16 0
2 -4 -9 -14 -15 -16 0
-2 4 9 14 15 16 0
-2 4 9 14 -15 -16 0
-2 4 9 -14 15 -16 0
-2 4 9 -14 -15 16 0
-2 4 -9 14 15 -16 0
-2 4 -9 14 -15 16 0
-2 4 -9 -14 15 16 0
-2 4 -9 -14 -15 -16 0
-2 -4 9 14 15 -16 0
-2 -4 9 14 -15 16 0
-2 -4 9 -14 15 16 0
-2 -4 9 -14 -15 -16 0
-2 -4 -9 14 15 16 0
-2 -4 -9 14 -15 -16 0
-2 -4 -9 -14 15 -16 0
-2 -4 -9 -14 -15 16 0
5 -17 0
-5 17 0
3 10 12 18 -19 0
3 10 12 -18 19 0
3 10 -12 18 19 0
3 10 -12 -18 -19 0
3 -10 12 18 19 0
3 -10 12 -18 -19 0
3 -10 -12 18 -19 0
3 -10 -12 -18 19 0
-3 10 12 18 19 0
-3 10 12 -18 -19 0
-3 10 -12 18 -19 0
-3 10 -12 -18 19 0
-3 -10 12 18 -19 0
-3 -10 12 -18 19 0
-3 -10 -12 18 19 0
-3 -10 -12 -18 -19 0
6 14 18 -20 0
6 14 -18 20 0
6 -14 18 20 0
6 -14 -18 -20 0
-6 14 18 20 0
-6 14 -18 -20 0
-6 -14 18 -20 0
-6 -14 -18 20 0
13 15 17 -19 0
13 15 -17 19 0
13 -15 17 19 0
13 -15 -17 -19 0
-13 15 17 19 0
-13 15 -17 -19 0
-13 -15 17 -19 0
-13 -15 -17 19 0
7 11 16 -20 0
7 11 -16 20 0
7 -11 16 20 0
7 -11 -16 -20 0
-7 11 16 20 0
-7 11 -16 -20 0
-7 -11 16 -20 0
-7 -11 -16 20 0